# 4 layer nanoparticle of K-illite

units metal #defines the units: time in ps, distances in Angstrom, energies in eV, etc.

dimension 3 #3-D system

atom_style full

#LJ+coulomb solved up to 15 Angstrom, coulomb solved in k-space beyond 15 A

pair_style lj/cut/coul/long 15.0

#Lorentz-Berthelot combining rules for the LJ interactions
pair_modify mix arithmetic

# Bond and angles exist
bond_style harmonic
angle_style harmonic

#increasing the page size as the distance used is 15 angstorm
# ??? The values are arbitrary for now; should try lower values and try too
neigh_modify one 50000 page 50000000

#Setting up the system

#input file
#There should be an accompanying file named "cutoff_file.illite" that contains
# the what atoms are what types - please see that; if it's not there
# please reach me at kedar.kolluri@gmail.com
read_data dat_lammps.21

reset_timestep 0

#Lennard-Jones pair coefficients for all atom types (the units are eV and Angstrom)
# please see comment for read_data command for details on what atom is what type

pair_coeff	1	1	7.98102e-8	3.30203 #Si_base_tet-Si_base_tet
#pair_coeff	1	1	0 0

pair_coeff      2       2       7.98102e-8	3.30203 #Si_oct-Si_oct
#pair_coeff      2       2       0 0

pair_coeff	3	3	5.76646e-8	4.27124 #Al_oct-Al_oct
#pair_coeff	3	3	0 0

pair_coeff	4	4	5.76646e-8	4.27124 #Al_tet-Al_tet
#pair_coeff	4	4	0 0

pair_coeff	5	5	6.73853e-3	3.16556 #O_regular-O_regular
#pair_coeff	5	5	0 0

pair_coeff	6	6	6.73853e-3	3.16556 #O_hydroxyl-O_hydroxly
#pair_coeff	6	6	0 0

pair_coeff	7	7	4.337e-3	3.33200 #K from Dang (1995)
#pair_coeff	7	7	0 0

pair_coeff	8	8	0.0		0.00000 #H_hydroxyl-H_hydroxyl

pair_coeff	9	9	6.73853e-3	3.16556 #O_bridge-O_bridge
#pair_coeff	9	9	0 0

pair_coeff	10	10	0.0		0.00000 #dummy - no such type exists


#Begin- Info from Laura's matlab file
#bondcoeffs = [1, 24.0291, 1.0; 2, 24.0291, 1.0; 3, 0.0, 1.65;...
#              4.0, 0.0, 2.05; 5, 24.0291, 1.0]; %Bond coefficients
#where 1. O-H (6-9), 2. O-He(NA), 3. Si-Oe(NA), 4. Al-Oe(NA), 5. Hw-Ow(NA)

#anglecoeffs = [1, 1.30090, 109.47; 2, 1.30090, 109.47; 3, 1.98472, 109.47;...
#                4, 1.98472, 109.47]; %Angle coefficients
#where % Angle types: 1. Si-O-H (1, 2), 2. Al-O-H (3, 4), 3. He-O-He(NA), 4. Hw-Ow-Hw(NA)
#End- Info is from Laura's matlab file

#relevant bond information for this case
bond_coeff 1 24.0291 1.0
#bond_coeff 1 0.0 0.0

#relevant angle information for this case
angle_coeff 1 1.30090 109.47
angle_coeff 2 1.30090 109.47
angle_coeff 3 1.98472 109.47
angle_coeff 4 1.98472 109.47
#angle_coeff 1 0 0
#angle_coeff 2 0 0
#angle_coeff 3 0 0
#angle_coeff 4 0 0

#k-space solver parameters (for electrostatic interactions)
kspace_style pppm 1e-5

#equations of motion solved with the Verlet algorithm
run_style verlet

# only Potassium atoms are moving!!
group mobile type 7


#use only temp of mobile atoms so that appropriate velocity is assigned to them
#otherwsie average velocity will be much lower and actual simulation temp will be much lower than desired simulation temp
compute mobile_temp mobile temp

#compute stress (all contributions) for only mobile atoms
# don't know what to do with pressure, really but lets just compute for now
compute mobile_stress mobile stress/atom mobile_temp

# the average pressure (actually three times the average pressure)

compute avg_pressure mobile reduce sum c_mobile_stress[1] c_mobile_stress[2] c_mobile_stress[3]
# sum the avg pressure
variable mobile_pressure equal -(c_avg_pressure[1]+c_avg_pressure[2]+c_avg_pressure[3])*(0.0001)/(3*vol)
variable mobile_enthalpy equal v_mobile_pressure*vol

#logging simulation data
variable press_gpa equal press*0.0001

compute         energy all pe/atom
compute         pe all reduce sum c_energy

compute         bond_energy all pe/atom bond
compute         ebond all reduce sum c_bond_energy


thermo_style custom step etotal enthalpy v_mobile_enthalpy pe ke ecoul epair elong ebond eangle cpu #c_mobile_temp temp v_mobile_pressure v_press_gpa 

#frequency with which the thermodynamic output will be reported
thermo 100

#Definition of various "dump files" containing atomic coordinates at different timesteps
#definition of a dump named "1" that will output all atoms coordinates every 10000000th timestep (i.e., only once) in xyz format. This can be used to load the system in the visualization code VMD


dump save1 all xyz 1000 dat.*.xyz 
dump save2 all cfg 1000 dat.*.cfg mass type xs ys zs vx vy vz id type c_energy c_bond_energy x y z

#modifies the dump named "1" so that the xyz file includes the names of all atoms (instead of just their numerical index)

dump_modify save1 element Si Si Al Al O Oa K D H Ob # D is for Dummy - does not exist
dump_modify save2 element Si Si Al Al O Oa K D H Ob # D is for Dummy - does not exist


#Step 1 --------pre-equilibration 1: simulations in the NVE ensemble with the option nve/limit (so atoms that start out too close to each other don't shoot off at high velocity)

#Solve the equations of motion for atoms int the group "mobile" in the NVE ensemble, limiting atom displacements to a max of 0.0002 Angstrom per step (so T does not go too high)
#The NVE ensemble simulation is run for 10000 steps with a timestep of 0.01 fs
timestep 0.00001 # in ps
fix 3 mobile nve/limit 0.000200
run 10000
unfix 3
#More NVE ensemble simulation, for another 30000 steps with max displacement of 0.0005 A per step
fix 3 mobile nve/limit 0.0005
run 20000
unfix 3

#More NVE, with 0.1 fs timestep
timestep 0.0001
fix 3 mobile nve/limit 0.015000
run 20000
unfix 3

# More NVE with 0.5 fs timestep
timestep 0.001
fix 3 mobile nve/limit 0.20000
run 30000
unfix 3

undump 1

#write_restart illite_4lyrnano_SPCE_01.save #writing a restart file that can be used to continue the simulation
